
******************************************************************************
This program contains Ipopt, a library for large-scale nonlinear optimization.
 Ipopt is released as open source code under the Eclipse Public License (EPL).
         For more information visit http://projects.coin-or.org/Ipopt

This version of Ipopt was compiled from source code available at
    https://github.com/IDAES/Ipopt as part of the Institute for the Design of
    Advanced Energy Systems Process Systems Engineering Framework (IDAES PSE
    Framework) Copyright (c) 2018-2019. See https://github.com/IDAES/idaes-pse.

This version of Ipopt was compiled using HSL, a collection of Fortran codes
    for large-scale scientific computation.  All technical papers, sales and
    publicity material resulting from use of the HSL codes within IPOPT must
    contain the following acknowledgement:
        HSL, a collection of Fortran codes for large-scale scientific
        computation. See http://www.hsl.rl.ac.uk.
******************************************************************************

This is Ipopt version 3.13.2, running with linear solver ma27.

Number of nonzeros in equality constraint Jacobian...:     1336
Number of nonzeros in inequality constraint Jacobian.:        0
Number of nonzeros in Lagrangian Hessian.............:     1696

Total number of variables............................:      512
                     variables with only lower bounds:      128
                variables with lower and upper bounds:      320
                     variables with only upper bounds:        0
Total number of equality constraints.................:      508
Total number of inequality constraints...............:        0
        inequality constraints with only lower bounds:        0
   inequality constraints with lower and upper bounds:        0
        inequality constraints with only upper bounds:        0

iter    objective    inf_pr   inf_du lg(mu)  ||d||  lg(rg) alpha_du alpha_pr  ls
   0  0.0000000e+00 2.18e+00 1.42e-14  -1.0 0.00e+00    -  0.00e+00 0.00e+00   0
   1  1.1662519e-01 4.38e-01 1.46e+03  -1.0 4.25e+04    -  5.52e-01 9.90e-01h  1
   2  1.1942555e-01 2.31e-01 8.95e+02  -1.0 4.17e+03    -  6.84e-01 4.95e-01h  2
   3  1.2251142e-01 1.44e-02 6.05e+01  -1.0 1.92e+03    -  9.59e-01 9.90e-01h  1
   4  1.2243826e-01 1.87e-04 2.58e+01  -1.0 1.47e+02    -  9.90e-01 9.90e-01h  1
   5  1.2235850e-01 3.82e-05 5.90e+04  -1.0 4.78e+03    -  9.87e-01 9.90e-01h  1
   6  1.3299791e-01 1.71e-06 1.13e+05  -1.0 3.72e+03    -  9.90e-01 9.90e-01H  1
   7  1.1863075e-01 2.19e-06 9.13e+05  -2.5 5.93e+03    -  9.97e-01 9.97e-01H  1
   8  1.1856655e-01 9.77e-07 5.60e+09  -2.5 5.05e+02    -  1.00e+00 9.97e-01h  1
In iteration 8, 32 Slacks too small, adjusting variable bounds
   9  1.1856640e-01 2.80e-09 1.98e+12  -2.5 3.53e+00    -  1.00e+00 9.97e-01h  1
iter    objective    inf_pr   inf_du lg(mu)  ||d||  lg(rg) alpha_du alpha_pr  ls
  10  1.1856640e-01 7.67e-13 2.83e-08  -2.5 1.00e-02    -  1.00e+00 1.00e+00h  1
  11  1.1855357e-01 7.70e-11 8.88e+08  -9.0 1.82e+02    -  1.00e+00 1.00e+00F  1
  12  1.1855357e-01 4.27e-11 1.44e-08  -9.0 3.21e+00    -  1.00e+00 1.00e+00h  1

Number of Iterations....: 12

                                   (scaled)                 (unscaled)
Objective...............:   1.1855357165510927e-01    1.1855357165510927e-01
Dual infeasibility......:   1.4435499906539917e-08    1.4435499906539917e-08
Constraint violation....:   4.2695291746497332e-11    4.2695291746497332e-11
Complementarity.........:   9.6206524137720719e-10    9.6206524137720719e-10
Overall NLP error.......:   4.5047462719615646e-11    1.4435499906539917e-08


Number of objective function evaluations             = 18
Number of objective gradient evaluations             = 13
Number of equality constraint evaluations            = 18
Number of inequality constraint evaluations          = 0
Number of equality constraint Jacobian evaluations   = 13
Number of inequality constraint Jacobian evaluations = 0
Number of Lagrangian Hessian evaluations             = 12
Total CPU secs in IPOPT (w/o function evaluations)   =      0.041
Total CPU secs in NLP function evaluations           =      0.362

EXIT: Optimal Solution Found.
